experiment/data/hgs-res/Vrp-Set-Golden-n241/Vrp-Set-Golden-n241-hgs/0.hgs1.tour
Route #1: 58 98 99 139 138 178 179 180 181 182 183 184 185 186 187 188 189 190 191 192 193 153 113 114 74
Route #2: 61 101 102 103 104 105 106 107 108 109 110 111 112 152 151 150 149 148 147 146 145 144 143 142 141 140 100 60 59
Route #3: 75 115 155 154 194 234 233 232 231 230 229 228 227 226 225 224 223 222 221 220 219 218 217 177 137 97 57
Route #4: 32 31 30 29 28 27 26 25 24 23 22 62 63 64 65 66 67 68 69 70 71 72 73 33 34 35 36
Route #5: 56 96 136 176 216 215 214 213 212 211 210 209 208 207 206 205 204 203 202 201 240 239 238 237 236 235 195 196 156 116 76
Route #6: 38 78 79 119 118 158 159 160 121 122 123 124 125 126 127 128 129 130 131 132 133 134 94 93 53
Route #7: 39 40 80 120 81 82 83 84 85 86 87 88 89 90 91 92 52 51 50 49 48 47 46 45 44 43 42 41 1
Route #8: 54 55 95 135 175 174 173 172 171 170 169 168 167 166 165 164 163 162 161 200 199 198 197 157 117 77 37
Route #9: 2 3 4 5 6 7 8 9 10 11 12 13 14 15 16 17 18 19 20 21
Cost 5370.55
